
Gurobi 13.0.1 (linux64) logging started Sat Mar 21 11:43:05 2026

Set parameter LogFile to value "logs/75B_3F_deterministic_2026-03-21_11h42m49s.log"
Gurobi Optimizer version 13.0.1 build v13.0.1rc0 (linux64 - "Linux Mint 22")

CPU model: 12th Gen Intel(R) Core(TM) i7-12700, instruction set [SSE2|AVX|AVX2]
Thread count: 20 physical cores, 20 logical processors, using up to 20 threads

Non-default parameters:
TimeLimit  3600
SoftMemLimit  12

Optimize a model with 44845 rows, 866335 columns and 2625436 nonzeros (Max)
Model fingerprint: 0x04f59ac8
Model has 838015 linear objective coefficients
Variable types: 11335 continuous, 855000 integer (855000 binary)
Coefficient statistics:
  Matrix range     [3e-05, 1e+05]
  Objective range  [3e+01, 3e+03]
  Bounds range     [1e+00, 1e+05]
  RHS range        [1e-02, 1e+05]

Found heuristic solution: objective -4.33861e+08
Presolve removed 22973 rows and 626111 columns
Presolve time: 1.94s
Presolved: 21872 rows, 240224 columns, 747470 nonzeros
Variable types: 5525 continuous, 234699 integer (234699 binary)
Deterministic concurrent LP optimizer: primal simplex, dual simplex, and barrier
Showing barrier log only...

Root barrier log...

Ordering time: 0.46s

Barrier statistics:
 AA' NZ     : 3.650e+05
 Factor NZ  : 2.461e+06 (roughly 130 MB of memory)
 Factor Ops : 4.866e+08 (less than 1 second per iteration)
 Threads    : 18

                  Objective                Residual
Iter       Primal          Dual         Primal    Dual     Compl     Time
   0  -1.46935910e+11  1.90898651e+09  4.46e+06 2.48e+03  2.73e+06     3s
   1  -6.07484320e+10  2.42004684e+09  1.85e+06 4.09e+01  1.17e+06     3s
   2  -1.06040727e+10  2.36837219e+09  3.32e+05 1.43e-01  2.13e+05     3s
   3  -6.88654099e+09  2.08109110e+09  2.19e+05 1.58e-10  1.43e+05     3s
   4  -4.90410568e+09  1.93310615e+09  1.59e+05 9.41e-11  1.06e+05     3s
   5  -2.76241858e+09  1.71324688e+09  9.41e+04 5.85e-11  6.28e+04     3s
   6  -5.98627844e+07  1.50401611e+09  1.23e+04 6.05e-11  1.01e+04     4s
   7   3.39828431e+08  9.30276644e+08  1.96e+02 5.34e-11  1.29e+03     4s
   8   3.44673477e+08  3.49372869e+08  2.28e-01 9.91e-11  9.64e+00     4s
   9   3.44697963e+08  3.45619406e+08  1.09e-10 2.89e-10  1.88e+00     4s
  10   3.44761548e+08  3.45111530e+08  8.00e-11 1.63e-10  7.12e-01     4s
  11   3.44810165e+08  3.44913691e+08  1.22e-10 1.31e-10  2.11e-01     4s
  12   3.44823030e+08  3.44863873e+08  1.30e-09 1.51e-10  8.31e-02     4s
  13   3.44824749e+08  3.44849003e+08  6.68e-10 1.80e-10  4.94e-02     4s
  14   3.44825731e+08  3.44843665e+08  3.71e-10 1.83e-10  3.65e-02     4s
  15   3.44826102e+08  3.44838264e+08  2.67e-10 2.06e-10  2.48e-02     4s
  16   3.44826450e+08  3.44833821e+08  1.76e-10 1.64e-10  1.50e-02     4s
  17   3.44826699e+08  3.44830412e+08  1.15e-10 1.39e-10  7.56e-03     4s
  18   3.44826993e+08  3.44828738e+08  1.13e-10 1.38e-10  3.55e-03     4s
  19   3.44827059e+08  3.44828278e+08  9.82e-11 1.70e-10  2.48e-03     4s
  20   3.44827127e+08  3.44828023e+08  4.73e-10 2.02e-10  1.82e-03     4s
  21   3.44827141e+08  3.44827567e+08  2.86e-10 1.49e-10  8.68e-04     4s
  22   3.44827153e+08  3.44827375e+08  1.60e-10 1.48e-10  4.53e-04     4s
  23   3.44827175e+08  3.44827223e+08  1.73e-10 1.05e-10  9.61e-05     4s
  24   3.44827180e+08  3.44827207e+08  5.15e-10 1.31e-10  5.49e-05     4s
  25   3.44827181e+08  3.44827194e+08  1.26e-09 1.35e-10  2.66e-05     5s
  26   3.44827183e+08  3.44827186e+08  4.08e-10 1.13e-10  6.40e-06     5s
  27   3.44827185e+08  3.44827186e+08  1.43e-09 1.16e-10  8.64e-07     5s
  28   3.44827185e+08  3.44827185e+08  2.58e-09 1.15e-10  4.87e-08     5s
  29   3.44827185e+08  3.44827185e+08  1.73e-09 1.13e-10  1.54e-11     5s

Barrier solved model in 29 iterations and 4.75 seconds (5.37 work units)
Optimal objective 3.44827185e+08


Root crossover log...

       0 PPushes remaining with PInf 0.0000000e+00                 5s

  Push phase complete: Pinf 0.0000000e+00, Dinf 3.1820099e+04      5s


Root simplex log...

Iteration    Objective       Primal Inf.    Dual Inf.      Time
   10118    3.4482719e+08   0.000000e+00   3.182010e+04      5s
   11293    3.4482719e+08   0.000000e+00   0.000000e+00      5s
Crossover time: 0.62 seconds (0.73 work units)
Concurrent spin time: 0.05s

Solved with barrier

Root relaxation: objective 3.448272e+08, 11293 iterations, 3.12 seconds (3.32 work units)

    Nodes    |    Current Node    |     Objective Bounds      |     Work
 Expl Unexpl |  Obj  Depth IntInf | Incumbent    BestBd   Gap | It/Node Time

     0     0 3.4483e+08    0 3895 -4.339e+08 3.4483e+08   179%     -    6s
H    0     0                    2.659915e+08 3.4483e+08  29.6%     -    6s
H    0     0                    2.893628e+08 3.4483e+08  19.2%     -    6s
H    0     0                    3.238135e+08 3.4483e+08  6.49%     -    6s
H    0     0                    3.447308e+08 3.4483e+08  0.03%     -   13s
     0     0 3.4483e+08    0 3847 3.4473e+08 3.4483e+08  0.03%     -   19s
     0     0 3.4483e+08    0 4001 3.4473e+08 3.4483e+08  0.03%     -   44s
     0     0 3.4483e+08    0 4001 3.4473e+08 3.4483e+08  0.03%     -   44s
     0     0 3.4483e+08    0 3994 3.4473e+08 3.4483e+08  0.03%     -   44s
     0     0 3.4483e+08    0 4074 3.4473e+08 3.4483e+08  0.03%     -   45s
     0     0 3.4483e+08    0 4695 3.4473e+08 3.4483e+08  0.03%     -   56s
     0     0 3.4483e+08    0 4695 3.4473e+08 3.4483e+08  0.03%     -   58s
     0     0 3.4483e+08    0 4357 3.4473e+08 3.4483e+08  0.03%     -   58s
     0     2 3.4483e+08    0 4357 3.4473e+08 3.4483e+08  0.03%     -   75s
     1     4 3.4483e+08    1 4958 3.4473e+08 3.4483e+08  0.03%   372   83s
     3     8 3.4483e+08    2 4763 3.4473e+08 3.4483e+08  0.03%  1331   91s
H    7    16                    3.447460e+08 3.4483e+08  0.02%  1286  102s
H   14    16                    3.447530e+08 3.4483e+08  0.02%  1662  102s
    15    30 3.4483e+08    4 4749 3.4475e+08 3.4483e+08  0.02%  1587  147s
H   16    30                    3.447531e+08 3.4483e+08  0.02%  1488  147s
H   23    30                    3.447544e+08 3.4483e+08  0.02%  2006  147s
H   27    30                    3.447677e+08 3.4483e+08  0.02%  2557  147s
    29    50 3.4483e+08    5 4766 3.4477e+08 3.4483e+08  0.02%  2766  215s
H   33    50                    3.447681e+08 3.4483e+08  0.02%  2595  215s
H   37    50                    3.447687e+08 3.4483e+08  0.02%  2378  215s
H   38    50                    3.447694e+08 3.4483e+08  0.02%  2375  215s
    49   206 3.4483e+08    6 4764 3.4477e+08 3.4483e+08  0.02%  2207  326s
H  205   226                    3.447696e+08 3.4483e+08  0.02%  1066  538s
H  207   226                    3.447704e+08 3.4483e+08  0.02%  1067  538s
H  212   226                    3.447773e+08 3.4483e+08  0.01%  1057  538s
H  217   226                    3.447849e+08 3.4483e+08  0.01%  1057  538s
H  225   698                    3.447854e+08 3.4483e+08  0.01%  1041  849s
H  697  1221                    3.447857e+08 3.4483e+08  0.01%   860 1368s
  1220  2579 3.4483e+08   46 4603 3.4479e+08 3.4483e+08  0.01%   867 2435s
  2578  2599 3.4483e+08  125 4532 3.4479e+08 3.4483e+08  0.01%   876 3064s
H 2579  2599                    3.447863e+08 3.4483e+08  0.01%   876 3064s
H 2581  2599                    3.447868e+08 3.4483e+08  0.01%   875 3064s
  2598  3286 3.4482e+08  125 3538 3.4479e+08 3.4483e+08  0.01%   880 3600s

Cutting planes:
  Zero half: 14
  RLT: 3680

Explored 3285 nodes (2893495 simplex iterations) in 3600.11 seconds (2247.46 work units)
Thread count was 20 (of 20 available processors)

Solution count 10: 3.44787e+08 3.44786e+08 3.44786e+08 ... 3.44769e+08

Time limit reached
Best objective 3.447868241717e+08, best bound 3.448262600901e+08, gap 0.0114%
